#Put Keywords Here, check Charge and Multiplicity.

 1

0  1
C           2.39650        -3.82000        -0.87030
N           2.17490        -2.45030        -0.47360
C           0.93220        -1.91420        -0.20320
C          -0.25670        -2.64200        -0.28210
C          -1.49450        -2.04830         0.00520
C          -1.58420        -0.70500         0.38470
N          -2.84970        -0.14670         0.62940
C          -3.32890         1.17050         0.54110
C          -2.75280         2.13870        -0.28390
C          -3.24270         3.45170        -0.31260
C          -4.32360         3.83690         0.48310
N          -4.82550         5.14850         0.51420
C          -4.23130         6.38920         0.22990
C          -2.85590         6.61490         0.31580
C          -2.30410         7.86200        -0.00850
C          -3.10900         8.91690        -0.44370
N          -2.60500        10.19180        -0.74890
C          -1.45530        10.87550        -0.32040
C          -0.81160        10.60610         0.88810
C           0.35440        11.29260         1.25920
C           0.92060        12.26470         0.43180
N           2.06600        12.96580         0.75090
C           2.81540        12.77620         1.96970
C           0.27570        12.52860        -0.78090
C          -0.89040        11.84630        -1.15310
C          -4.48720         8.69120        -0.53250
C          -5.03920         7.44640        -0.20400
C          -4.89670         2.86960         1.31650
C          -4.40720         1.55740         1.34500
C          -0.39880         0.02650         0.45870
C           0.83720        -0.57040         0.17350
H           3.46730        -3.98840        -1.02270
H           2.05780        -4.51610        -0.09620
H           1.88730        -4.04650        -1.81250
H           2.98480        -1.84790        -0.39320
H          -0.24860        -3.68770        -0.57360
H          -2.39350        -2.65210        -0.08540
H          -3.54570        -0.82090         0.92560
H          -1.93360         1.87800        -0.94860
H          -2.78430         4.15890        -0.99860
H          -5.79670         5.21190         0.79610
H          -2.18970         5.83100         0.66530
H          -1.22640         7.98320         0.05800
H          -3.17520        10.71600        -1.40220
H          -1.22500         9.87870         1.58110
H           0.80410        11.04750         2.21640
H           2.40920        13.65230         0.09070
H           3.67750        13.45060         1.97790
H           2.20560        13.00620         2.84920
H           3.19430        11.75200         2.04610
H           0.68060        13.27370        -1.46070
H          -1.34460        12.07680        -2.11300
H          -5.15220         9.48920        -0.85250
H          -6.11320         7.31030        -0.30000
H          -5.72410         3.13200         1.97060
H          -4.86970         0.84210         2.02010
H          -0.41130         1.06640         0.77240
H           1.73520         0.03660         0.25510

1 2 1.0 32 1.0 33 1.0 34 1.0 
2 3 1.0 35 1.0 
3 4 2.0 31 1.0 
4 5 1.0 36 1.0 
5 6 2.0 37 1.0 
6 7 1.0 30 1.0 
7 8 1.0 38 1.0 
8 9 2.0 29 1.0 
9 10 1.0 39 1.0 
10 11 2.0 40 1.0 
11 12 1.0 28 1.0 
12 13 1.0 41 1.0 
13 14 2.0 27 1.0 
14 15 1.0 42 1.0 
15 16 2.0 43 1.0 
16 17 1.0 26 1.0 
17 18 1.0 44 1.0 
18 19 2.0 25 1.0 
19 20 1.0 45 1.0 
20 21 2.0 46 1.0 
21 22 1.0 24 1.0 
22 23 1.0 47 1.0 
23 48 1.0 49 1.0 50 1.0 
24 25 2.0 51 1.0 
25 52 1.0 
26 27 2.0 53 1.0 
27 54 1.0 
28 29 2.0 55 1.0 
29 56 1.0 
30 31 2.0 57 1.0 
31 58 1.0 
32 
33 
34 
35 
36 
37 
38 
39 
40 
41 
42 
43 
44 
45 
46 
47 
48 
49 
50 
51 
52 
53 
54 
55 
56 
57 
58 
