#Put Keywords Here, check Charge and Multiplicity.

 mtbe_p84

0  1
C           0.80830        -3.99920        -2.06650
C           0.05170        -2.86050        -1.36600
C          -1.44900        -2.98170        -1.64540
O           0.40100        -1.58050        -1.93810
C           1.76180        -1.18080        -1.87170
C           0.32240        -2.87050         0.14660
O          -2.82640        -0.51040         4.39240
C          -2.81950        -0.94330         3.24600
C          -1.95830        -0.27600         2.20760
C          -0.75560         0.30940         2.64450
C           0.10620         0.95710         1.75660
C          -0.28260         1.02140         0.42690
C           0.42280         1.60650        -0.74860
N          -0.42830         1.38500        -1.85200
C          -0.07400         1.68860        -3.19630
C          -0.21040         0.70610        -4.18130
C           0.14370         1.00790        -5.49430
C           0.64500         2.26940        -5.81960
C           0.79300         3.23650        -4.82440
C           0.42880         2.95340        -3.50970
C          -1.59230         0.67260        -1.48070
O          -2.47920         0.31300        -2.22340
O           1.50810         2.14850        -0.78100
C          -1.48310         0.46900        -0.00910
C          -2.34210        -0.18440         0.85750
C          -3.64650        -2.13130         2.87100
C          -4.77000        -2.42090         3.66080
C          -5.55470        -3.53450         3.38350
C          -5.21410        -4.38430         2.32710
C          -4.08540        -4.11800         1.55220
C          -3.30540        -2.99430         1.81840
H           1.87750        -3.98780        -1.83610
H           0.41440        -4.96770        -1.74310
H           0.68510        -3.91960        -3.15090
H          -1.63490        -2.96780        -2.72280
H          -1.84300        -3.91680        -1.23500
H          -1.99420        -2.14390        -1.20770
H           2.09770        -1.00660        -0.84060
H           1.83350        -0.23890        -2.41780
H           2.43730        -1.90460        -2.34510
H           1.39310        -2.84040         0.36920
H          -0.08010        -3.78240         0.59930
H          -0.14990        -2.00750         0.62190
H          -0.51390         0.23890         3.69980
H           1.04420         1.39320         2.08340
H          -0.56690        -0.27720        -3.90190
H           0.03680         0.24900        -6.26370
H           0.92480         2.49650        -6.84420
H           1.18980         4.21690        -5.07050
H           0.54440         3.69420        -2.72740
H          -3.27430        -0.60570         0.49890
H          -5.00570        -1.75750         4.48640
H          -6.43010        -3.74510         3.99040
H          -5.82610        -5.25570         2.11320
H          -3.80990        -4.78410         0.74020
H          -2.41990        -2.80680         1.22330

1 2 1.0 32 1.0 33 1.0 34 1.0 
2 3 1.0 4 1.0 6 1.0 
3 35 1.0 36 1.0 37 1.0 
4 5 1.0 
5 38 1.0 39 1.0 40 1.0 
6 41 1.0 42 1.0 43 1.0 
7 8 2.0 
8 9 1.0 26 1.0 
9 25 1.0 10 2.0 
10 11 1.0 44 1.0 
11 12 2.0 45 1.0 
12 13 1.0 24 1.0 
13 14 1.0 23 2.0 
14 15 1.0 21 1.0 
15 20 1.0 16 2.0 
16 17 1.0 46 1.0 
17 18 2.0 47 1.0 
18 19 1.0 48 1.0 
19 20 2.0 49 1.0 
20 50 1.0 
21 24 1.0 22 2.0 
22 
23 
24 25 2.0 
25 51 1.0 
26 31 1.0 27 2.0 
27 28 1.0 52 1.0 
28 29 2.0 53 1.0 
29 30 1.0 54 1.0 
30 31 2.0 55 1.0 
31 56 1.0 
32 
33 
34 
35 
36 
37 
38 
39 
40 
41 
42 
43 
44 
45 
46 
47 
48 
49 
50 
51 
52 
53 
54 
55 
56 
