%chk=2_out.chk
%CPU=0-53
%mem=4GB
# opt M062X/6-31+G(d,p) geom=connectivity integral=ultrafine

 tol_p84

0  1
C           2.58650         1.80530        -2.83450
C           1.24860         1.21520        -2.45720
C           1.18040         0.00340        -1.75500
C          -0.04710        -0.54550        -1.38610
C          -1.23610         0.11430        -1.70100
C          -1.18370         1.32360        -2.39410
C           0.04720         1.86200        -2.77280
O          -4.18000         1.23580         2.72340
C          -3.33230         0.43280         2.35350
C          -1.96940         0.92410         1.95260
C          -0.79890         0.20420         2.25210
C           0.46110         0.67210         1.86880
C           0.50810         1.86430         1.16590
C           1.67140         2.56150         0.55510
N           1.14640         3.72830        -0.05220
C           1.92190         4.65150        -0.80860
C           3.21710         4.97450        -0.38950
C           3.98820         5.84990        -1.15070
C           3.47360         6.41740        -2.31610
C           2.17580         6.10300        -2.71960
C           1.39720         5.21890        -1.97610
C          -0.26490         3.79440         0.09590
O          -0.98810         4.65980        -0.34710
O           2.83470         2.21220         0.55440
C          -0.64470         2.59250         0.88570
C          -1.89460         2.15700         1.28340
C          -3.64440        -1.02760         2.26150
C          -4.71360        -1.51940         3.02560
C          -5.07910        -2.85820         2.94240
C          -4.39520        -3.71690         2.07660
C          -3.34590        -3.23170         1.29550
C          -2.96590        -1.89380         1.38990
H           2.47240         2.74530        -3.37970
H           3.18080         2.01210        -1.93840
H           3.16050         1.11240        -3.46010
H           2.10270        -0.50670        -1.48880
H          -0.07430        -1.48720        -0.84370
H          -2.19300        -0.30700        -1.40590
H          -2.10050         1.85240        -2.63870
H           0.07810         2.80210        -3.31660
H          -0.88090        -0.73450         2.78990
H           1.36820         0.11910         2.08700
H           3.61940         4.52900         0.51080
H           4.99580         6.09020        -0.82510
H           4.07800         7.10150        -2.90400
H           1.76300         6.54320        -3.62240
H           0.38910         4.98070        -2.28590
H          -2.79430         2.72320         1.07050
H          -5.24360        -0.83020         3.67470
H          -5.89960        -3.23490         3.54570
H          -4.68560        -4.76120         2.00710
H          -2.82540        -3.89390         0.61010
H          -2.15950        -1.51740         0.76940

1 2 1.0 33 1.0 34 1.0 35 1.0 
2 7 1.0 3 2.0 
3 4 1.0 36 1.0 
4 5 2.0 37 1.0 
5 6 1.0 38 1.0 
6 7 2.0 39 1.0 
7 40 1.0 
8 9 2.0 
9 10 1.0 27 1.0 
10 26 1.0 11 2.0 
11 12 1.0 41 1.0 
12 13 2.0 42 1.0 
13 14 1.0 25 1.0 
14 15 1.0 24 2.0 
15 16 1.0 22 1.0 
16 21 1.0 17 2.0 
17 18 1.0 43 1.0 
18 19 2.0 44 1.0 
19 20 1.0 45 1.0 
20 21 2.0 46 1.0 
21 47 1.0 
22 25 1.0 23 2.0 
23 
24 
25 26 2.0 
26 48 1.0 
27 32 1.0 28 2.0 
28 29 1.0 49 1.0 
29 30 2.0 50 1.0 
30 31 1.0 51 1.0 
31 32 2.0 52 1.0 
32 53 1.0 
33 
34 
35 
36 
37 
38 
39 
40 
41 
42 
43 
44 
45 
46 
47 
48 
49 
50 
51 
52 
53 
