%chk=4_out.chk
%CPU=0-53
%mem=4GB
# opt M062X/6-31+G(d,p) geom=connectivity integral=ultrafine

 etoac_p84

0  1
C           3.37500         0.71930        -3.12900
C           2.60240         1.21570        -1.92450
O           1.92260         0.07340        -1.33850
C           1.35690         0.26540        -0.13740
C           0.53330        -0.93270         0.27090
O           1.46350         1.28410         0.51940
O          -4.97340         1.12660         3.43300
C          -4.09800         0.74220         2.66710
C          -3.00390         1.68830         2.25330
C          -2.60820         2.66830         3.18170
C          -1.61730         3.60410         2.87730
C          -1.05750         3.54730         1.60980
C           0.01070         4.38670         0.99810
N           0.15320         3.91280        -0.32810
C           1.15280         4.35840        -1.23400
C           0.83080         4.52440        -2.58380
C           1.82500         4.90010        -3.48540
C           3.12820         5.12840        -3.04190
C           3.43630         4.97650        -1.68830
C           2.45560         4.58410        -0.78030
C          -0.68460         2.80270        -0.57590
O          -0.73310         2.15890        -1.60500
O           0.64010         5.29160         1.50250
C          -1.46600         2.60150         0.67410
C          -2.43200         1.65620         0.96900
C          -4.10230        -0.65760         2.14200
C          -2.92800        -1.32550         1.76350
C          -2.98120        -2.64810         1.32760
C          -4.20740        -3.31050         1.25730
C          -5.38010        -2.65490         1.64370
C          -5.32680        -1.34040         2.09430
H           4.13030        -0.01710        -2.83890
H           3.87750         1.56480        -3.60920
H           2.70320         0.25770        -3.85830
H           3.25090         1.67110        -1.17180
H           1.84200         1.94710        -2.20410
H           0.97720        -1.86330        -0.08790
H           0.42790        -0.94690         1.35610
H          -0.45820        -0.83250        -0.18380
H          -3.09800         2.67460         4.14970
H          -1.29170         4.34860         3.59590
H          -0.18070         4.33390        -2.92070
H           1.57710         5.01700        -4.53600
H           3.89960         5.42490        -3.74650
H           4.44870         5.15160        -1.33690
H           2.69000         4.44210         0.26680
H          -2.74160         0.93030         0.22650
H          -1.97110        -0.82130         1.83420
H          -2.06620        -3.16080         1.04550
H          -4.25010        -4.33840         0.90860
H          -6.33320        -3.17300         1.59560
H          -6.22230        -0.81850         2.41520

1 2 1.0 32 1.0 33 1.0 34 1.0 
2 3 1.0 35 1.0 36 1.0 
3 4 1.0 
4 5 1.0 6 2.0 
5 37 1.0 38 1.0 39 1.0 
6 
7 8 2.0 
8 9 1.0 26 1.0 
9 25 1.0 10 2.0 
10 11 1.0 40 1.0 
11 12 2.0 41 1.0 
12 13 1.0 24 1.0 
13 14 1.0 23 2.0 
14 15 1.0 21 1.0 
15 20 1.0 16 2.0 
16 17 1.0 42 1.0 
17 18 2.0 43 1.0 
18 19 1.0 44 1.0 
19 20 2.0 45 1.0 
20 46 1.0 
21 24 1.0 22 2.0 
22 
23 
24 25 2.0 
25 47 1.0 
26 31 1.0 27 2.0 
27 28 1.0 48 1.0 
28 29 2.0 49 1.0 
29 30 1.0 50 1.0 
30 31 2.0 51 1.0 
31 52 1.0 
32 
33 
34 
35 
36 
37 
38 
39 
40 
41 
42 
43 
44 
45 
46 
47 
48 
49 
50 
51 
52 
