%chk=6_out.chk
%CPU=0-53
%mem=4GB
# opt M062X/6-31+G(d,p) geom=connectivity integral=ultrafine

 etoh_p84

0  1
C           3.17750         3.86370        -3.08100
C           4.13470         2.69050        -2.87800
O           3.50310         1.43220        -3.04730
O          -5.47620         1.19950         1.47790
C          -4.68690         0.26850         1.37620
C          -3.27860         0.55260         0.92380
C          -2.56630        -0.32900         0.09210
C          -1.27680        -0.02400        -0.35990
C          -0.72460         1.17400         0.06150
C           0.61550         1.75530        -0.21910
N           0.65380         2.98830         0.45710
C           1.77720         3.86580         0.46910
C           3.06320         3.34080         0.62680
C           4.15850         4.20130         0.62110
C           3.97470         5.57650         0.47350
C           2.68640         6.09200         0.32840
C           1.58300         5.24190         0.31940
C          -0.56760         3.24410         1.14260
O          -0.81600         4.23090         1.79720
O           1.51050         1.27180        -0.88660
C          -1.43060         2.06000         0.87530
C          -2.71410         1.78360         1.30510
C          -5.09890        -1.12930         1.70680
C          -6.47000        -1.42820         1.67540
C          -6.92030        -2.69760         2.01880
C          -6.00730        -3.67770         2.41890
C          -4.64460        -3.38320         2.47540
C          -4.18820        -2.11600         2.11620
H           2.71940         3.81200        -4.07380
H           2.38010         3.84090        -2.33140
H           3.69810         4.82280        -2.98120
H           4.61040         2.77460        -1.88670
H           4.93950         2.73000        -3.62180
H           2.83980         1.34760        -2.34620
H          -3.03370        -1.25840        -0.21500
H          -0.72460        -0.69500        -1.00890
H           3.20160         2.27220         0.73440
H           5.15760         3.79220         0.73420
H           4.83160         6.24310         0.47160
H           2.53590         7.16100         0.21380
H           0.58080         5.63620         0.20800
H          -3.27780         2.47760         1.91770
H          -7.16200        -0.64610         1.38120
H          -7.98130        -2.92510         1.98120
H          -6.35980        -4.66770         2.69340
H          -3.93730        -4.13880         2.80370
H          -3.13000        -1.88740         2.18320

1 2 1.0 29 1.0 30 1.0 31 1.0 
2 3 1.0 32 1.0 33 1.0 
3 34 1.0 
4 5 2.0 
5 6 1.0 23 1.0 
6 22 1.0 7 2.0 
7 8 1.0 35 1.0 
8 9 2.0 36 1.0 
9 10 1.0 21 1.0 
10 11 1.0 20 2.0 
11 12 1.0 18 1.0 
12 17 1.0 13 2.0 
13 14 1.0 37 1.0 
14 15 2.0 38 1.0 
15 16 1.0 39 1.0 
16 17 2.0 40 1.0 
17 41 1.0 
18 21 1.0 19 2.0 
19 
20 
21 22 2.0 
22 42 1.0 
23 28 1.0 24 2.0 
24 25 1.0 43 1.0 
25 26 2.0 44 1.0 
26 27 1.0 45 1.0 
27 28 2.0 46 1.0 
28 47 1.0 
29 
30 
31 
32 
33 
34 
35 
36 
37 
38 
39 
40 
41 
42 
43 
44 
45 
46 
47 
