#Put Keywords Here, check Charge and Multiplicity.

 mecn_p84

0  1
C          -0.89900        -2.03610        -2.60610
C           0.56020        -2.04560        -2.60640
N           1.72040        -2.03990        -2.59710
O          -2.49780        -1.69220         2.48710
C          -2.73010        -1.22640         1.37850
C          -1.64610        -0.47310         0.65630
C          -1.91720         0.64020        -0.15960
C          -0.88820         1.33840        -0.80350
C           0.40620         0.87980        -0.61840
C           1.68720         1.36990        -1.20770
N           2.69050         0.53030        -0.68330
C           4.06770         0.61450        -1.03940
C           4.75900        -0.54790        -1.38890
C           6.10920        -0.45980        -1.72050
C           6.75860         0.77560        -1.72130
C           6.05320         1.93200        -1.38610
C           4.70650         1.85670        -1.03730
C           2.15660        -0.45650         0.18120
O           2.78430        -1.30490         0.77260
O           1.84790         2.29450        -1.97610
C           0.68390        -0.21000         0.20470
C          -0.31870        -0.89210         0.86750
C          -4.06530        -1.42910         0.73200
C          -5.15180        -1.73710         1.56550
C          -6.40580        -1.99160         1.02190
C          -6.58670        -1.96390        -0.36400
C          -5.50890        -1.68030        -1.20270
C          -4.25490        -1.40880        -0.65820
H          -1.28410        -2.53670        -3.49870
H          -1.25620        -1.00250        -2.58970
H          -1.27530        -2.54910        -1.71710
H          -2.94400         0.96860        -0.28140
H          -1.08690         2.20210        -1.42940
H           4.23570        -1.49570        -1.40690
H           6.65210        -1.36100        -1.98880
H           7.81020         0.83770        -1.98560
H           6.55180         2.89660        -1.38990
H           4.14830         2.74830        -0.77780
H          -0.10570        -1.73120         1.52030
H          -4.98460        -1.77510         2.63670
H          -7.24320        -2.21840         1.67470
H          -7.56500        -2.16950        -0.78860
H          -5.64320        -1.67350        -2.28020
H          -3.42040        -1.20120        -1.31760

1 2 1.0 29 1.0 30 1.0 31 1.0 
2 3 3.0 
3 
4 5 2.0 
5 6 1.0 23 1.0 
6 22 1.0 7 2.0 
7 8 1.0 32 1.0 
8 9 2.0 33 1.0 
9 10 1.0 21 1.0 
10 11 1.0 20 2.0 
11 12 1.0 18 1.0 
12 17 1.0 13 2.0 
13 14 1.0 34 1.0 
14 15 2.0 35 1.0 
15 16 1.0 36 1.0 
16 17 2.0 37 1.0 
17 38 1.0 
18 21 1.0 19 2.0 
19 
20 
21 22 2.0 
22 39 1.0 
23 28 1.0 24 2.0 
24 25 1.0 40 1.0 
25 26 2.0 41 1.0 
26 27 1.0 42 1.0 
27 28 2.0 43 1.0 
28 44 1.0 
29 
30 
31 
32 
33 
34 
35 
36 
37 
38 
39 
40 
41 
42 
43 
44 
