#Put Keywords Here, check Charge and Multiplicity.

 hept_p84

0  1
C          -0.67190         4.63240         0.65440
C          -1.02860         3.27060         0.05040
C          -1.80640         2.37580         1.02310
C          -2.13120         0.98980         0.45500
C          -2.76640         0.04270         1.47930
C          -3.01610        -1.36590         0.92860
C          -3.60010        -2.32700         1.96730
O          -0.32880        -5.50140         2.92370
C          -0.56370        -4.98740         1.83710
C          -0.05030        -3.60060         1.55670
C           0.39880        -3.21050         0.28310
C           0.89680        -1.92410         0.04780
C           0.91530        -1.04610         1.11840
C           1.33380         0.38110         1.16870
N           1.14740         0.79200         2.51100
C           1.41430         2.10810         2.98980
C           2.50570         2.82300         2.48380
C           2.74630         4.11880         2.93480
C           1.91910         4.70010         3.89560
C           0.83970         3.97720         4.40270
C           0.57680         2.68610         3.95080
C           0.62310        -0.26480         3.30480
O           0.34090        -0.20230         4.48140
O           1.73970         1.06760         0.25370
C           0.48830        -1.43080         2.38740
C           0.01770        -2.70540         2.63930
C          -1.36230        -5.71220         0.80160
C          -1.41660        -7.11220         0.88210
C          -2.18060        -7.83910        -0.02370
C          -2.91960        -7.17440        -1.00700
C          -2.89010        -5.78170        -1.08070
C          -2.10990        -5.05150        -0.18560
H          -1.57190         5.17970         0.96050
H          -0.03710         4.51300         1.53900
H          -0.12990         5.25780        -0.06290
H          -1.61910         3.41080        -0.86600
H          -0.10720         2.75560        -0.24820
H          -2.73790         2.87630         1.32440
H          -1.21860         2.26050         1.94260
H          -2.79910         1.09330        -0.41210
H          -1.21060         0.53430         0.06500
H          -2.11500        -0.02990         2.36240
H          -3.71230         0.46990         1.84130
H          -3.68680        -1.30330         0.06050
H          -2.06550        -1.76480         0.55260
H          -3.75660        -3.32750         1.55120
H          -4.56460        -1.96640         2.34210
H          -2.92880        -2.42680         2.82740
H           0.36120        -3.92550        -0.53100
H           1.24450        -1.61440        -0.93170
H           3.14500         2.37650         1.73390
H           3.58870         4.67280         2.53200
H           2.11350         5.70940         4.24520
H           0.18840         4.42020         5.14970
H          -0.26180         2.12760         4.34420
H          -0.30310        -3.01520         3.62730
H          -0.85240        -7.60650         1.66610
H          -2.20780        -8.92300         0.03710
H          -3.52220        -7.74250        -1.70990
H          -3.47680        -5.26210        -1.83220
H          -2.10700        -3.96920        -0.23830

1 2 1.0 33 1.0 34 1.0 35 1.0 
2 3 1.0 36 1.0 37 1.0 
3 4 1.0 38 1.0 39 1.0 
4 5 1.0 40 1.0 41 1.0 
5 6 1.0 42 1.0 43 1.0 
6 7 1.0 44 1.0 45 1.0 
7 46 1.0 47 1.0 48 1.0 
8 9 2.0 
9 10 1.0 27 1.0 
10 26 1.0 11 2.0 
11 12 1.0 49 1.0 
12 13 2.0 50 1.0 
13 14 1.0 25 1.0 
14 15 1.0 24 2.0 
15 16 1.0 22 1.0 
16 21 1.0 17 2.0 
17 18 1.0 51 1.0 
18 19 2.0 52 1.0 
19 20 1.0 53 1.0 
20 21 2.0 54 1.0 
21 55 1.0 
22 25 1.0 23 2.0 
23 
24 
25 26 2.0 
26 56 1.0 
27 32 1.0 28 2.0 
28 29 1.0 57 1.0 
29 30 2.0 58 1.0 
30 31 1.0 59 1.0 
31 32 2.0 60 1.0 
32 61 1.0 
33 
34 
35 
36 
37 
38 
39 
40 
41 
42 
43 
44 
45 
46 
47 
48 
49 
50 
51 
52 
53 
54 
55 
56 
57 
58 
59 
60 
61 
#Put Keywords Here, check Charge and Multiplicity.

 mtbe_p84

0  1
C           0.80830        -3.99920        -2.06650
C           0.05170        -2.86050        -1.36600
C          -1.44900        -2.98170        -1.64540
O           0.40100        -1.58050        -1.93810
C           1.76180        -1.18080        -1.87170
C           0.32240        -2.87050         0.14660
O          -2.82640        -0.51040         4.39240
C          -2.81950        -0.94330         3.24600
C          -1.95830        -0.27600         2.20760
C          -0.75560         0.30940         2.64450
C           0.10620         0.95710         1.75660
C          -0.28260         1.02140         0.42690
C           0.42280         1.60650        -0.74860
N          -0.42830         1.38500        -1.85200
C          -0.07400         1.68860        -3.19630
C          -0.21040         0.70610        -4.18130
C           0.14370         1.00790        -5.49430
C           0.64500         2.26940        -5.81960
C           0.79300         3.23650        -4.82440
C           0.42880         2.95340        -3.50970
C          -1.59230         0.67260        -1.48070
O          -2.47920         0.31300        -2.22340
O           1.50810         2.14850        -0.78100
C          -1.48310         0.46900        -0.00910
C          -2.34210        -0.18440         0.85750
C          -3.64650        -2.13130         2.87100
C          -4.77000        -2.42090         3.66080
C          -5.55470        -3.53450         3.38350
C          -5.21410        -4.38430         2.32710
C          -4.08540        -4.11800         1.55220
C          -3.30540        -2.99430         1.81840
H           1.87750        -3.98780        -1.83610
H           0.41440        -4.96770        -1.74310
H           0.68510        -3.91960        -3.15090
H          -1.63490        -2.96780        -2.72280
H          -1.84300        -3.91680        -1.23500
H          -1.99420        -2.14390        -1.20770
H           2.09770        -1.00660        -0.84060
H           1.83350        -0.23890        -2.41780
H           2.43730        -1.90460        -2.34510
H           1.39310        -2.84040         0.36920
H          -0.08010        -3.78240         0.59930
H          -0.14990        -2.00750         0.62190
H          -0.51390         0.23890         3.69980
H           1.04420         1.39320         2.08340
H          -0.56690        -0.27720        -3.90190
H           0.03680         0.24900        -6.26370
H           0.92480         2.49650        -6.84420
H           1.18980         4.21690        -5.07050
H           0.54440         3.69420        -2.72740
H          -3.27430        -0.60570         0.49890
H          -5.00570        -1.75750         4.48640
H          -6.43010        -3.74510         3.99040
H          -5.82610        -5.25570         2.11320
H          -3.80990        -4.78410         0.74020
H          -2.41990        -2.80680         1.22330

1 2 1.0 32 1.0 33 1.0 34 1.0 
2 3 1.0 4 1.0 6 1.0 
3 35 1.0 36 1.0 37 1.0 
4 5 1.0 
5 38 1.0 39 1.0 40 1.0 
6 41 1.0 42 1.0 43 1.0 
7 8 2.0 
8 9 1.0 26 1.0 
9 25 1.0 10 2.0 
10 11 1.0 44 1.0 
11 12 2.0 45 1.0 
12 13 1.0 24 1.0 
13 14 1.0 23 2.0 
14 15 1.0 21 1.0 
15 20 1.0 16 2.0 
16 17 1.0 46 1.0 
17 18 2.0 47 1.0 
18 19 1.0 48 1.0 
19 20 2.0 49 1.0 
20 50 1.0 
21 24 1.0 22 2.0 
22 
23 
24 25 2.0 
25 51 1.0 
26 31 1.0 27 2.0 
27 28 1.0 52 1.0 
28 29 2.0 53 1.0 
29 30 1.0 54 1.0 
30 31 2.0 55 1.0 
31 56 1.0 
32 
33 
34 
35 
36 
37 
38 
39 
40 
41 
42 
43 
44 
45 
46 
47 
48 
49 
50 
51 
52 
53 
54 
55 
56 
#Put Keywords Here, check Charge and Multiplicity.

 tol_p84

0  1
C           2.58650         1.80530        -2.83450
C           1.24860         1.21520        -2.45720
C           1.18040         0.00340        -1.75500
C          -0.04710        -0.54550        -1.38610
C          -1.23610         0.11430        -1.70100
C          -1.18370         1.32360        -2.39410
C           0.04720         1.86200        -2.77280
O          -4.18000         1.23580         2.72340
C          -3.33230         0.43280         2.35350
C          -1.96940         0.92410         1.95260
C          -0.79890         0.20420         2.25210
C           0.46110         0.67210         1.86880
C           0.50810         1.86430         1.16590
C           1.67140         2.56150         0.55510
N           1.14640         3.72830        -0.05220
C           1.92190         4.65150        -0.80860
C           3.21710         4.97450        -0.38950
C           3.98820         5.84990        -1.15070
C           3.47360         6.41740        -2.31610
C           2.17580         6.10300        -2.71960
C           1.39720         5.21890        -1.97610
C          -0.26490         3.79440         0.09590
O          -0.98810         4.65980        -0.34710
O           2.83470         2.21220         0.55440
C          -0.64470         2.59250         0.88570
C          -1.89460         2.15700         1.28340
C          -3.64440        -1.02760         2.26150
C          -4.71360        -1.51940         3.02560
C          -5.07910        -2.85820         2.94240
C          -4.39520        -3.71690         2.07660
C          -3.34590        -3.23170         1.29550
C          -2.96590        -1.89380         1.38990
H           2.47240         2.74530        -3.37970
H           3.18080         2.01210        -1.93840
H           3.16050         1.11240        -3.46010
H           2.10270        -0.50670        -1.48880
H          -0.07430        -1.48720        -0.84370
H          -2.19300        -0.30700        -1.40590
H          -2.10050         1.85240        -2.63870
H           0.07810         2.80210        -3.31660
H          -0.88090        -0.73450         2.78990
H           1.36820         0.11910         2.08700
H           3.61940         4.52900         0.51080
H           4.99580         6.09020        -0.82510
H           4.07800         7.10150        -2.90400
H           1.76300         6.54320        -3.62240
H           0.38910         4.98070        -2.28590
H          -2.79430         2.72320         1.07050
H          -5.24360        -0.83020         3.67470
H          -5.89960        -3.23490         3.54570
H          -4.68560        -4.76120         2.00710
H          -2.82540        -3.89390         0.61010
H          -2.15950        -1.51740         0.76940

1 2 1.0 33 1.0 34 1.0 35 1.0 
2 7 1.0 3 2.0 
3 4 1.0 36 1.0 
4 5 2.0 37 1.0 
5 6 1.0 38 1.0 
6 7 2.0 39 1.0 
7 40 1.0 
8 9 2.0 
9 10 1.0 27 1.0 
10 26 1.0 11 2.0 
11 12 1.0 41 1.0 
12 13 2.0 42 1.0 
13 14 1.0 25 1.0 
14 15 1.0 24 2.0 
15 16 1.0 22 1.0 
16 21 1.0 17 2.0 
17 18 1.0 43 1.0 
18 19 2.0 44 1.0 
19 20 1.0 45 1.0 
20 21 2.0 46 1.0 
21 47 1.0 
22 25 1.0 23 2.0 
23 
24 
25 26 2.0 
26 48 1.0 
27 32 1.0 28 2.0 
28 29 1.0 49 1.0 
29 30 2.0 50 1.0 
30 31 1.0 51 1.0 
31 32 2.0 52 1.0 
32 53 1.0 
33 
34 
35 
36 
37 
38 
39 
40 
41 
42 
43 
44 
45 
46 
47 
48 
49 
50 
51 
52 
53 
#Put Keywords Here, check Charge and Multiplicity.

 methf_p84

0  1
C           1.16290         4.48550         0.95190
C           1.27310         3.04950         0.47670
C           0.41290         2.00940         1.22070
C           0.20740         0.89490         0.16120
C           0.74360         1.54210        -1.14250
O           0.81770         2.94290        -0.88100
O          -5.12510        -1.14740         0.52500
C          -4.32200        -0.34400         0.98420
C          -3.69500         0.67930         0.07710
C          -3.46390         0.30760        -1.26050
C          -2.86260         1.18220        -2.16880
C          -2.52530         2.44590        -1.70700
C          -1.82310         3.56700        -2.39860
N          -1.75580         4.61520        -1.45140
C          -1.05580         5.83830        -1.65820
C           0.20270         5.82170        -2.26580
C           0.88020         7.02410        -2.45470
C           0.31920         8.22860        -2.02650
C          -0.93120         8.23080        -1.40770
C          -1.62750         7.03730        -1.22710
C          -2.29930         4.22720        -0.21040
O          -2.32380         4.89570         0.80370
O          -1.38680         3.59110        -3.52860
C          -2.79610         2.83700        -0.39990
C          -3.37450         1.97610         0.51640
C          -3.94350        -0.37740         2.43070
C          -4.84800        -0.96430         3.32890
C          -4.53490        -1.05860         4.68010
C          -3.30420        -0.58790         5.14720
C          -2.38800        -0.02620         4.25780
C          -2.70580         0.08400         2.90540
H           1.57980         4.57450         1.96030
H           1.72010         5.15130         0.28750
H           0.12370         4.81940         0.97840
H           2.33110         2.73090         0.51310
H          -0.54190         2.46770         1.49910
H           0.89370         1.65170         2.13590
H          -0.84630         0.62540         0.06070
H           0.75830        -0.01760         0.40580
H           0.09880         1.39710        -2.01170
H           1.74500         1.15260        -1.38580
H          -3.75640        -0.69200        -1.56430
H          -2.65300         0.89020        -3.19240
H           0.64180         4.87610        -2.55470
H           1.85750         7.01630        -2.92820
H           0.85660         9.16130        -2.17030
H          -1.37080         9.16330        -1.06680
H          -2.59720         7.02720        -0.74360
H          -3.56400         2.29840         1.53400
H          -5.78970        -1.33930         2.94200
H          -5.24570        -1.50130         5.37140
H          -3.05870        -0.66480         6.20250
H          -1.42490         0.32580         4.61500
H          -1.97910         0.50440         2.21990

1 2 1.0 32 1.0 33 1.0 34 1.0 
2 6 1.0 3 1.0 35 1.0 
3 4 1.0 36 1.0 37 1.0 
4 5 1.0 38 1.0 39 1.0 
5 6 1.0 40 1.0 41 1.0 
6 
7 8 2.0 
8 9 1.0 26 1.0 
9 25 1.0 10 2.0 
10 11 1.0 42 1.0 
11 12 2.0 43 1.0 
12 13 1.0 24 1.0 
13 14 1.0 23 2.0 
14 15 1.0 21 1.0 
15 20 1.0 16 2.0 
16 17 1.0 44 1.0 
17 18 2.0 45 1.0 
18 19 1.0 46 1.0 
19 20 2.0 47 1.0 
20 48 1.0 
21 24 1.0 22 2.0 
22 
23 
24 25 2.0 
25 49 1.0 
26 31 1.0 27 2.0 
27 28 1.0 50 1.0 
28 29 2.0 51 1.0 
29 30 1.0 52 1.0 
30 31 2.0 53 1.0 
31 54 1.0 
32 
33 
34 
35 
36 
37 
38 
39 
40 
41 
42 
43 
44 
45 
46 
47 
48 
49 
50 
51 
52 
53 
54 
#Put Keywords Here, check Charge and Multiplicity.

 etoac_p84

0  1
C           3.37500         0.71930        -3.12900
C           2.60240         1.21570        -1.92450
O           1.92260         0.07340        -1.33850
C           1.35690         0.26540        -0.13740
C           0.53330        -0.93270         0.27090
O           1.46350         1.28410         0.51940
O          -4.97340         1.12660         3.43300
C          -4.09800         0.74220         2.66710
C          -3.00390         1.68830         2.25330
C          -2.60820         2.66830         3.18170
C          -1.61730         3.60410         2.87730
C          -1.05750         3.54730         1.60980
C           0.01070         4.38670         0.99810
N           0.15320         3.91280        -0.32810
C           1.15280         4.35840        -1.23400
C           0.83080         4.52440        -2.58380
C           1.82500         4.90010        -3.48540
C           3.12820         5.12840        -3.04190
C           3.43630         4.97650        -1.68830
C           2.45560         4.58410        -0.78030
C          -0.68460         2.80270        -0.57590
O          -0.73310         2.15890        -1.60500
O           0.64010         5.29160         1.50250
C          -1.46600         2.60150         0.67410
C          -2.43200         1.65620         0.96900
C          -4.10230        -0.65760         2.14200
C          -2.92800        -1.32550         1.76350
C          -2.98120        -2.64810         1.32760
C          -4.20740        -3.31050         1.25730
C          -5.38010        -2.65490         1.64370
C          -5.32680        -1.34040         2.09430
H           4.13030        -0.01710        -2.83890
H           3.87750         1.56480        -3.60920
H           2.70320         0.25770        -3.85830
H           3.25090         1.67110        -1.17180
H           1.84200         1.94710        -2.20410
H           0.97720        -1.86330        -0.08790
H           0.42790        -0.94690         1.35610
H          -0.45820        -0.83250        -0.18380
H          -3.09800         2.67460         4.14970
H          -1.29170         4.34860         3.59590
H          -0.18070         4.33390        -2.92070
H           1.57710         5.01700        -4.53600
H           3.89960         5.42490        -3.74650
H           4.44870         5.15160        -1.33690
H           2.69000         4.44210         0.26680
H          -2.74160         0.93030         0.22650
H          -1.97110        -0.82130         1.83420
H          -2.06620        -3.16080         1.04550
H          -4.25010        -4.33840         0.90860
H          -6.33320        -3.17300         1.59560
H          -6.22230        -0.81850         2.41520

1 2 1.0 32 1.0 33 1.0 34 1.0 
2 3 1.0 35 1.0 36 1.0 
3 4 1.0 
4 5 1.0 6 2.0 
5 37 1.0 38 1.0 39 1.0 
6 
7 8 2.0 
8 9 1.0 26 1.0 
9 25 1.0 10 2.0 
10 11 1.0 40 1.0 
11 12 2.0 41 1.0 
12 13 1.0 24 1.0 
13 14 1.0 23 2.0 
14 15 1.0 21 1.0 
15 20 1.0 16 2.0 
16 17 1.0 42 1.0 
17 18 2.0 43 1.0 
18 19 1.0 44 1.0 
19 20 2.0 45 1.0 
20 46 1.0 
21 24 1.0 22 2.0 
22 
23 
24 25 2.0 
25 47 1.0 
26 31 1.0 27 2.0 
27 28 1.0 48 1.0 
28 29 2.0 49 1.0 
29 30 1.0 50 1.0 
30 31 2.0 51 1.0 
31 52 1.0 
32 
33 
34 
35 
36 
37 
38 
39 
40 
41 
42 
43 
44 
45 
46 
47 
48 
49 
50 
51 
52 
#Put Keywords Here, check Charge and Multiplicity.

 ipa_p84

0  1
C          -0.36820        -1.31290        -0.77280
C           0.55910        -0.36930        -1.54090
O           1.84170        -0.30710        -0.91910
C           0.79130        -0.81670        -2.97830
O          -5.48300         0.96590         2.69680
C          -4.45130         0.49900         2.22940
C          -3.52500         1.39540         1.44850
C          -4.10800         2.44980         0.72240
C          -3.33160         3.35270        -0.00770
C          -1.95590         3.18380         0.03340
C          -0.87520         3.97220        -0.62210
N           0.34380         3.35820        -0.22270
C           1.63220         3.82040        -0.63370
C           1.91180         5.18840        -0.56980
C           3.15850         5.65190        -0.98230
C           4.12470         4.75610        -1.44220
C           3.83550         3.39260        -1.49650
C           2.58650         2.91470        -1.10250
C           0.11040         2.25420         0.61610
O           0.95740         1.52290         1.09930
O          -0.97970         4.93640        -1.34640
C          -1.36770         2.15990         0.77130
C          -2.12660         1.24860         1.48660
C          -4.10390        -0.94130         2.41920
C          -3.30290        -1.65230         1.51340
C          -3.05280        -3.00880         1.71120
C          -3.59450        -3.66290         2.81790
C          -4.40380        -2.96380         3.71860
C          -4.66620        -1.61370         3.51520
H          -0.48860        -0.97190         0.26040
H           0.05810        -2.32110        -0.75070
H          -1.35830        -1.36080        -1.24020
H           0.10000         0.63540        -1.56090
H           1.72120         0.07460        -0.03420
H          -0.15310        -0.86970        -3.52870
H           1.26080        -1.80560        -2.98930
H           1.45700        -0.11610        -3.49000
H          -5.18850         2.54340         0.74790
H          -3.77680         4.15820        -0.58180
H           1.15510         5.87760        -0.21490
H           3.37430         6.71510        -0.93930
H           5.09760         5.12050        -1.75850
H           4.58100         2.68970        -1.85580
H           2.36760         1.85460        -1.15730
H          -1.65190         0.46430         2.06490
H          -2.89440        -1.15610         0.64160
H          -2.43670        -3.55140         1.00070
H          -3.39250        -4.71820         2.97690
H          -4.83070        -3.47540         4.57590
H          -5.30470        -1.05580         4.19210

1 2 1.0 30 1.0 31 1.0 32 1.0 
2 3 1.0 4 1.0 33 1.0 
3 34 1.0 
4 35 1.0 36 1.0 37 1.0 
5 6 2.0 
6 7 1.0 24 1.0 
7 23 1.0 8 2.0 
8 9 1.0 38 1.0 
9 10 2.0 39 1.0 
10 11 1.0 22 1.0 
11 12 1.0 21 2.0 
12 13 1.0 19 1.0 
13 18 1.0 14 2.0 
14 15 1.0 40 1.0 
15 16 2.0 41 1.0 
16 17 1.0 42 1.0 
17 18 2.0 43 1.0 
18 44 1.0 
19 22 1.0 20 2.0 
20 
21 
22 23 2.0 
23 45 1.0 
24 29 1.0 25 2.0 
25 26 1.0 46 1.0 
26 27 2.0 47 1.0 
27 28 1.0 48 1.0 
28 29 2.0 49 1.0 
29 50 1.0 
30 
31 
32 
33 
34 
35 
36 
37 
38 
39 
40 
41 
42 
43 
44 
45 
46 
47 
48 
49 
50 
#Put Keywords Here, check Charge and Multiplicity.

 etoh_p84

0  1
C           3.17750         3.86370        -3.08100
C           4.13470         2.69050        -2.87800
O           3.50310         1.43220        -3.04730
O          -5.47620         1.19950         1.47790
C          -4.68690         0.26850         1.37620
C          -3.27860         0.55260         0.92380
C          -2.56630        -0.32900         0.09210
C          -1.27680        -0.02400        -0.35990
C          -0.72460         1.17400         0.06150
C           0.61550         1.75530        -0.21910
N           0.65380         2.98830         0.45710
C           1.77720         3.86580         0.46910
C           3.06320         3.34080         0.62680
C           4.15850         4.20130         0.62110
C           3.97470         5.57650         0.47350
C           2.68640         6.09200         0.32840
C           1.58300         5.24190         0.31940
C          -0.56760         3.24410         1.14260
O          -0.81600         4.23090         1.79720
O           1.51050         1.27180        -0.88660
C          -1.43060         2.06000         0.87530
C          -2.71410         1.78360         1.30510
C          -5.09890        -1.12930         1.70680
C          -6.47000        -1.42820         1.67540
C          -6.92030        -2.69760         2.01880
C          -6.00730        -3.67770         2.41890
C          -4.64460        -3.38320         2.47540
C          -4.18820        -2.11600         2.11620
H           2.71940         3.81200        -4.07380
H           2.38010         3.84090        -2.33140
H           3.69810         4.82280        -2.98120
H           4.61040         2.77460        -1.88670
H           4.93950         2.73000        -3.62180
H           2.83980         1.34760        -2.34620
H          -3.03370        -1.25840        -0.21500
H          -0.72460        -0.69500        -1.00890
H           3.20160         2.27220         0.73440
H           5.15760         3.79220         0.73420
H           4.83160         6.24310         0.47160
H           2.53590         7.16100         0.21380
H           0.58080         5.63620         0.20800
H          -3.27780         2.47760         1.91770
H          -7.16200        -0.64610         1.38120
H          -7.98130        -2.92510         1.98120
H          -6.35980        -4.66770         2.69340
H          -3.93730        -4.13880         2.80370
H          -3.13000        -1.88740         2.18320

1 2 1.0 29 1.0 30 1.0 31 1.0 
2 3 1.0 32 1.0 33 1.0 
3 34 1.0 
4 5 2.0 
5 6 1.0 23 1.0 
6 22 1.0 7 2.0 
7 8 1.0 35 1.0 
8 9 2.0 36 1.0 
9 10 1.0 21 1.0 
10 11 1.0 20 2.0 
11 12 1.0 18 1.0 
12 17 1.0 13 2.0 
13 14 1.0 37 1.0 
14 15 2.0 38 1.0 
15 16 1.0 39 1.0 
16 17 2.0 40 1.0 
17 41 1.0 
18 21 1.0 19 2.0 
19 
20 
21 22 2.0 
22 42 1.0 
23 28 1.0 24 2.0 
24 25 1.0 43 1.0 
25 26 2.0 44 1.0 
26 27 1.0 45 1.0 
27 28 2.0 46 1.0 
28 47 1.0 
29 
30 
31 
32 
33 
34 
35 
36 
37 
38 
39 
40 
41 
42 
43 
44 
45 
46 
47 
#Put Keywords Here, check Charge and Multiplicity.

 dmf_p84

0  1
O          -5.48290         3.30670         1.84600
C          -4.87240         2.64470         1.01540
C          -3.40720         2.90850         0.79180
C          -2.94460         4.22290         0.98630
C          -1.60100         4.56090         0.80590
C          -0.73100         3.54070         0.45020
C           0.73310         3.58030         0.16800
N           1.09490         2.24550        -0.15170
C           2.40880         1.83550        -0.52180
C           3.50990         2.29320         0.20780
C           4.78920         1.87630        -0.15160
C           4.97140         1.00260        -1.22360
C           3.86710         0.55220        -1.94720
C           2.58240         0.97060        -1.60580
C          -0.01370         1.37610        -0.07750
O          -0.00170         0.17810        -0.28130
O           1.48150         4.53200         0.19490
C          -1.17450         2.23000         0.29290
C          -2.50490         1.88430         0.45400
C          -5.56470         1.58510         0.21880
C          -5.14080         1.19150        -1.06020
C          -5.86330         0.23820        -1.77560
C          -7.00570        -0.33620        -1.21780
C          -7.43900         0.05710         0.05170
C          -6.72960         1.01990         0.76060
O           1.34850         1.68230         2.37480
C           1.46440         0.69450         3.08730
N           0.43270        -0.01280         3.63230
C          -0.94050         0.37990         3.37630
C           0.65970        -1.15850         4.49230
H          -3.66980         4.97470         1.27950
H          -1.24420         5.57690         0.93570
H           3.36020         2.96770         1.04180
H           5.64360         2.21420         0.42520
H           5.96830         0.65870        -1.47890
H           4.00230        -0.13150        -2.77980
H           1.71920         0.61800        -2.15700
H          -2.82800         0.85750         0.32940
H          -4.26510         1.64730        -1.50890
H          -5.53530        -0.05410        -2.76850
H          -7.56250        -1.08530        -1.77340
H          -8.33150        -0.38580         0.48320
H          -7.05800         1.35320         1.73950
H           2.44700         0.27560         3.36540
H          -0.93080         1.24760         2.71610
H          -1.45180         0.63840         4.31260
H          -1.49420        -0.43820         2.89790
H           1.72910        -1.32310         4.63620
H           0.20340        -0.99840         5.47810
H           0.21950        -2.06730         4.06060

1 2 2.0 
2 3 1.0 20 1.0 
3 19 1.0 4 2.0 
4 5 1.0 31 1.0 
5 6 2.0 32 1.0 
6 7 1.0 18 1.0 
7 8 1.0 17 2.0 
8 9 1.0 15 1.0 
9 14 1.0 10 2.0 
10 11 1.0 33 1.0 
11 12 2.0 34 1.0 
12 13 1.0 35 1.0 
13 14 2.0 36 1.0 
14 37 1.0 
15 18 1.0 16 2.0 
16 
17 
18 19 2.0 
19 38 1.0 
20 25 1.0 21 2.0 
21 22 1.0 39 1.0 
22 23 2.0 40 1.0 
23 24 1.0 41 1.0 
24 25 2.0 42 1.0 
25 43 1.0 
26 27 2.0 
27 28 1.0 44 1.0 
28 29 1.0 30 1.0 
29 45 1.0 46 1.0 47 1.0 
30 48 1.0 49 1.0 50 1.0 
31 
32 
33 
34 
35 
36 
37 
38 
39 
40 
41 
42 
43 
44 
45 
46 
47 
48 
49 
50 
#Put Keywords Here, check Charge and Multiplicity.

 meph_p84

0  1
C           3.65550         4.17810        -2.16000
O           2.30580         3.76200        -2.03710
O          -3.60400        -1.99730        -1.87240
C          -3.84590        -1.10830        -1.06530
C          -2.74750        -0.15250        -0.68040
C          -2.99680         1.20250        -0.39930
C          -1.95400         2.09370        -0.11980
C          -0.66730         1.58260        -0.11460
C           0.62790         2.26720         0.13970
N           1.62310         1.28230         0.00850
C           3.01970         1.51940         0.15830
C           3.47370         2.35780         1.18110
C           4.84120         2.58130         1.32940
C           5.75480         1.96260         0.47580
C           5.29190         1.12540        -0.54040
C           3.92710         0.90600        -0.71020
C           1.05940         0.01820        -0.32390
O           1.67560        -1.00870        -0.49870
O           0.80670         3.44250         0.40960
C          -0.41130         0.24170        -0.39770
C          -1.42820        -0.64310        -0.69990
C          -5.20960        -0.96960        -0.46770
C          -5.43290        -0.41040         0.79950
C          -6.72130        -0.36680         1.32980
C          -7.79610        -0.86910         0.59570
C          -7.58010        -1.43400        -0.66470
C          -6.29360        -1.49480        -1.18800
H           3.76710         5.27310        -2.11070
H           4.30770         3.72790        -1.39920
H           4.00840         3.85130        -3.14300
H           1.99570         4.00980        -1.15410
H          -4.01830         1.56680        -0.42020
H          -2.13720         3.14340         0.08230
H           2.76280         2.83470         1.84410
H           5.19060         3.23670         2.12150
H           6.81980         2.13430         0.59940
H           5.99480         0.64530        -1.21420
H           3.56560         0.26410        -1.50240
H          -1.23340        -1.67970        -0.95050
H          -4.59880        -0.03490         1.38240
H          -6.88500         0.05570         2.31660
H          -8.80050        -0.82730         1.00700
H          -8.41580        -1.83050        -1.23340
H          -6.10040        -1.94700        -2.15510

1 2 1.0 28 1.0 29 1.0 30 1.0 
2 31 1.0 
3 4 2.0 
4 5 1.0 22 1.0 
5 21 1.0 6 2.0 
6 7 1.0 32 1.0 
7 8 2.0 33 1.0 
8 9 1.0 20 1.0 
9 10 1.0 19 2.0 
10 11 1.0 17 1.0 
11 16 1.0 12 2.0 
12 13 1.0 34 1.0 
13 14 2.0 35 1.0 
14 15 1.0 36 1.0 
15 16 2.0 37 1.0 
16 38 1.0 
17 20 1.0 18 2.0 
18 
19 
20 21 2.0 
21 39 1.0 
22 27 1.0 23 2.0 
23 24 1.0 40 1.0 
24 25 2.0 41 1.0 
25 26 1.0 42 1.0 
26 27 2.0 43 1.0 
27 44 1.0 
28 
29 
30 
31 
32 
33 
34 
35 